results_rootrelaxation/bin012_080_032.srr.sol
solution status: optimal solution found
objective value:                     18.0828402366864
_var700_                           0.0591715976331361 	(obj:0)
_var712_                            0.189349112426036 	(obj:2)
_var717_                           0.0473372781065087 	(obj:1)
_var736_                            0.757396449704142 	(obj:2)
_var749_                           0.0118343195266277 	(obj:1)
_var753_                            0.390532544378698 	(obj:1)
_var755_                           0.0591715976331361 	(obj:1)
_var760_                           0.0769230769230763 	(obj:1)
_var765_                            0.224852071005917 	(obj:2)
_var767_                           0.0177514792899403 	(obj:2)
_var771_                            0.396449704142012 	(obj:1)
_var773_                            0.355029585798817 	(obj:1)
_var783_                            0.402366863905325 	(obj:1)
_var788_                            0.307692307692308 	(obj:1)
_var789_                           0.0828402366863908 	(obj:1)
_var794_                            0.390532544378698 	(obj:0)
_var799_                            0.171597633136094 	(obj:0)
_var802_                           0.0236686390532552 	(obj:3)
_var804_                            0.366863905325444 	(obj:1)
_var807_                           0.0532544378698219 	(obj:2)
_var808_                           0.0650887573964501 	(obj:3)
_var817_                            0.337278106508876 	(obj:1)
_var818_                            0.514792899408284 	(obj:1)
_var822_                            0.106508875739645 	(obj:1)
_var823_                            0.183431952662722 	(obj:2)
_var832_                            0.171597633136094 	(obj:1)
_var834_                            0.171597633136094 	(obj:3)
_var836_                            0.218934911242603 	(obj:3)
_var838_                           0.0591715976331361 	(obj:2)
_var842_                            0.236686390532545 	(obj:2)
_var844_                             0.34319526627219 	(obj:2)
_var845_                            0.644970414201184 	(obj:2)
_var847_                            0.402366863905325 	(obj:3)
_var851_                            0.230769230769231 	(obj:1)
_var855_                            0.224852071005917 	(obj:2)
_var858_                            0.230769230769231 	(obj:4)
_var859_                           0.0295857988165685 	(obj:0)
_var861_                            0.136094674556213 	(obj:1)
_var862_                            0.118343195266272 	(obj:2)
_var864_                            0.390532544378698 	(obj:3)
_var865_                          0.00591715976331431 	(obj:0)
_var870_                            0.118343195266272 	(obj:1)
_var871_                            0.100591715976332 	(obj:1)
_var872_                            0.171597633136094 	(obj:1)
_var873_                          0.00591715976331436 	(obj:2)
_var877_                           0.0118343195266277 	(obj:2)
_var879_                           0.0710059171597632 	(obj:2)
_var880_                           0.0710059171597631 	(obj:4)
_var883_                           0.0769230769230766 	(obj:2)
_var884_                            0.171597633136094 	(obj:3)
_var887_                           0.0236686390532542 	(obj:2)
_var889_                            0.106508875739645 	(obj:3)
_var890_                            0.289940828402367 	(obj:1)
_var893_                           0.0532544378698223 	(obj:3)
_var894_                           0.0828402366863908 	(obj:2)
_var895_                             0.14792899408284 	(obj:2)
_var896_                           0.0473372781065089 	(obj:1)
_var899_                            0.171597633136095 	(obj:1)
_var901_                           0.0236686390532552 	(obj:4)
_var904_                          0.00591715976331333 	(obj:1)
_var905_                           0.0414201183431946 	(obj:3)
